7
	1 2	3 1	1 1	1 5	1 3	2 1	1 4
0	0	 1	 1	 0	 0	 0	 0	 
1	0	 1	 1	 0	 0	 0	 0	 
2	0	 0	 0	 0	 0	 0	 0	 
3	0	 1	 1	 0	 0	 0	 0	 
4	0	 0	 0	 0	 0	 0	 1	 
5	0	 1	 1	 0	 0	 0	 0	 
6	0	 0	 0	 0	 0	 1	 0	 
7	0	 1	 1	 0	 0	 0	 0	 
8	0	 0	 0	 0	 0	 1	 1	 
9	0	 1	 1	 0	 0	 0	 0	 
10	0	 0	 0	 0	 1	 0	 0	 
11	0	 1	 1	 0	 0	 0	 0	 
12	0	 0	 0	 0	 1	 0	 1	 
13	0	 1	 1	 0	 0	 0	 0	 
14	0	 0	 0	 0	 1	 1	 0	 
15	0	 1	 1	 0	 0	 0	 0	 
16	0	 0	 0	 0	 1	 1	 1	 
17	0	 1	 1	 0	 0	 0	 0	 
18	0	 0	 0	 1	 0	 0	 0	 
19	0	 1	 1	 0	 0	 0	 0	 
20	0	 0	 0	 1	 0	 0	 1	 
21	0	 1	 1	 0	 0	 0	 0	 
22	0	 0	 0	 1	 0	 1	 0	 
23	0	 1	 1	 0	 0	 0	 0	 
24	0	 0	 0	 1	 0	 1	 1	 
25	0	 0	 0	 1	 1	 0	 0	 
26	0	 1	 1	 0	 0	 0	 0	 
27	0	 0	 0	 1	 1	 0	 1	 
28	0	 1	 1	 0	 0	 0	 0	 
29	0	 0	 0	 1	 1	 1	 0	 
30	0	 1	 1	 0	 0	 0	 0	 
31	0	 0	 0	 1	 1	 1	 1	 
32	1	 0	 0	 0	 0	 0	 0	 
33	0	 1	 1	 1	 0	 0	 0	 
34	0	 1	 1	 1	 0	 0	 0	 
35	0	 0	 1	 0	 0	 0	 0	 
36	0	 0	 0	 0	 0	 1	 0	 
37	0	 0	 1	 0	 0	 0	 1	 
38	0	 0	 0	 0	 0	 1	 0	 
39	0	 0	 1	 0	 0	 1	 0	 
40	0	 0	 0	 0	 0	 1	 0	 
41	0	 0	 1	 0	 0	 1	 1	 
42	0	 0	 0	 0	 0	 1	 0	 
43	0	 0	 1	 0	 1	 0	 0	 
44	0	 0	 0	 0	 0	 1	 0	 
45	0	 0	 1	 0	 1	 0	 1	 
46	0	 0	 0	 0	 0	 1	 0	 
47	0	 0	 1	 0	 1	 1	 0	 
48	0	 0	 0	 0	 0	 1	 0	 
49	0	 0	 1	 0	 1	 1	 1	 
50	0	 0	 0	 0	 0	 1	 0	 
51	0	 0	 1	 1	 0	 0	 0	 
52	0	 0	 0	 0	 0	 1	 0	 
53	0	 0	 1	 1	 0	 0	 1	 
54	0	 0	 0	 0	 0	 1	 0	 
55	0	 0	 1	 1	 0	 1	 0	 
56	0	 0	 0	 0	 0	 1	 0	 
57	0	 0	 1	 1	 0	 1	 1	 
58	0	 0	 0	 0	 0	 1	 0	 
59	0	 0	 1	 1	 1	 0	 0	 
60	0	 0	 0	 0	 0	 1	 0	 
61	0	 0	 1	 1	 1	 0	 1	 
62	0	 0	 0	 0	 0	 1	 0	 
63	0	 0	 1	 1	 1	 1	 0	 
64	0	 0	 0	 0	 0	 1	 0	 
65	0	 0	 1	 1	 1	 1	 1	 
66	0	 0	 0	 0	 0	 1	 0	 
67	0	 1	 0	 0	 0	 0	 0	 
68	0	 0	 0	 0	 0	 1	 0	 
69	0	 1	 0	 0	 0	 0	 1	 
70	0	 0	 0	 0	 0	 1	 0	 
71	0	 1	 0	 0	 0	 1	 0	 
72	0	 0	 0	 0	 0	 1	 0	 
73	0	 1	 0	 0	 0	 1	 1	 
74	0	 0	 0	 0	 0	 1	 0	 
75	0	 1	 0	 0	 1	 0	 0	 
76	0	 0	 0	 0	 0	 1	 0	 
77	0	 1	 0	 0	 1	 0	 1	 
78	0	 1	 1	 0	 0	 1	 0	 
79	0	 1	 1	 0	 0	 1	 0	 
80	0	 1	 0	 0	 1	 1	 0	 
81	0	 1	 1	 0	 0	 1	 0	 
82	0	 1	 0	 0	 1	 1	 1	 
83	0	 1	 1	 0	 0	 1	 0	 
84	0	 1	 0	 1	 0	 0	 0	 
85	0	 1	 1	 0	 0	 1	 0	 
86	0	 1	 0	 1	 0	 0	 1	 
87	0	 1	 1	 0	 0	 1	 0	 
88	0	 1	 0	 1	 0	 1	 0	 
89	0	 1	 1	 0	 0	 1	 0	 
90	0	 1	 0	 1	 0	 1	 1	 
91	0	 1	 1	 0	 0	 1	 0	 
92	0	 1	 0	 1	 1	 0	 0	 
93	0	 1	 1	 0	 0	 1	 0	 
94	0	 1	 0	 1	 1	 0	 1	 
95	0	 1	 1	 0	 0	 1	 0	 
96	0	 1	 0	 1	 1	 1	 0	 
97	0	 1	 1	 0	 0	 1	 0	 
98	0	 1	 0	 1	 1	 1	 1	 
99	0	 1	 1	 0	 0	 1	 0	 
100	0	 1	 1	 0	 0	 0	 1	 
101	0	 1	 1	 0	 0	 1	 0	 
102	0	 1	 1	 0	 0	 1	 1	 
103	0	 1	 1	 0	 0	 1	 0	 
104	0	 1	 1	 0	 1	 0	 0	 
105	0	 1	 1	 0	 0	 1	 0	 
106	0	 1	 1	 0	 1	 0	 1	 
107	0	 1	 1	 0	 0	 1	 0	 
108	0	 1	 1	 0	 1	 1	 0	 
109	0	 1	 1	 0	 0	 1	 0	 
110	0	 1	 1	 0	 1	 1	 1	 
111	0	 1	 1	 0	 0	 1	 0	 
112	0	 1	 1	 1	 0	 0	 1	 
113	0	 1	 1	 0	 0	 1	 0	 
114	0	 1	 1	 1	 0	 1	 0	 
115	0	 1	 1	 0	 0	 1	 0	 
116	0	 1	 1	 1	 0	 1	 1	 
117	0	 1	 1	 0	 0	 1	 0	 
118	0	 1	 1	 1	 1	 0	 0	 
119	0	 1	 1	 0	 0	 1	 0	 
120	0	 1	 1	 1	 1	 0	 1	 
121	0	 1	 1	 0	 0	 1	 0	 
122	0	 1	 1	 1	 1	 1	 0	 
123	0	 1	 1	 0	 0	 1	 0	 
124	0	 1	 1	 1	 1	 1	 1	 
125	0	 1	 1	 0	 0	 1	 0	 
126	1	 0	 0	 0	 0	 0	 1	 
127	1	 0	 0	 0	 0	 1	 0	 
128	0	 1	 1	 0	 1	 1	 0	 
129	1	 0	 0	 0	 0	 1	 1	 
130	1	 0	 0	 0	 1	 0	 0	 
131	1	 0	 0	 0	 0	 1	 0	 
132	1	 0	 0	 0	 1	 0	 1	 
133	1	 0	 0	 0	 1	 1	 0	 
134	0	 0	 0	 0	 0	 0	 0	 
135	1	 0	 0	 0	 1	 1	 1	 
136	0	 0	 0	 0	 0	 0	 0	 
137	1	 0	 0	 1	 0	 0	 0	 
138	0	 0	 0	 0	 0	 0	 0	 
139	1	 0	 0	 1	 0	 0	 1	 
140	0	 0	 0	 0	 0	 0	 0	 
141	1	 0	 0	 1	 0	 1	 0	 
142	0	 0	 0	 0	 0	 0	 0	 
143	1	 0	 0	 1	 0	 1	 1	 
144	0	 0	 0	 0	 0	 0	 0	 
145	1	 0	 0	 1	 1	 0	 0	 
146	0	 0	 0	 0	 0	 0	 0	 
147	1	 0	 0	 1	 1	 0	 1	 
148	0	 0	 0	 0	 0	 0	 0	 
149	1	 0	 0	 1	 1	 1	 0	 
150	0	 0	 0	 0	 0	 0	 0	 
151	1	 0	 0	 1	 1	 1	 1	 
152	1	 0	 1	 0	 0	 0	 0	 
153	0	 0	 0	 0	 0	 0	 0	 
154	1	 0	 1	 0	 0	 0	 1	 
155	0	 0	 0	 0	 0	 0	 0	 
156	1	 0	 1	 0	 0	 1	 0	 
157	1	 0	 1	 0	 0	 1	 1	 
158	0	 0	 0	 0	 0	 0	 0	 
159	1	 0	 1	 0	 1	 0	 0	 
